\ This file has been generated by DOcplex
\ ENCODING=ISO-8859-1
\Problem name: random_problem.lp

Minimize
 obj: 374 x0 + 187 x1 - 288 x2 - 144 x3 - 458 x4 - 229 x5 - 856 x6 - 428 x7 + [
      600 x0^2 + 600 x0*x1 - 64 x0*x2 - 32 x0*x3 + 256 x0*x4 + 128 x0*x5
      + 688 x0*x6 + 344 x0*x7 + 150 x1^2 - 32 x1*x2 - 16 x1*x3 + 128 x1*x4
      + 64 x1*x5 + 344 x1*x6 + 172 x1*x7 + 320 x2^2 + 320 x2*x3 + 224 x2*x4
      + 112 x2*x5 - 432 x2*x6 - 216 x2*x7 + 80 x3^2 + 112 x3*x4 + 56 x3*x5
      - 216 x3*x6 - 108 x3*x7 + 816 x4^2 + 816 x4*x5 + 976 x4*x6 + 488 x4*x7
      + 204 x5^2 + 488 x5*x6 + 244 x5*x7 + 3232 x6^2 + 3232 x6*x7 + 808 x7^2 ]/2
Subject To
 c0: 2 x0 + x1 + 2 x2 + x3 + 2 x4 + x5 + 2 x6 + x7 = 3

Bounds
 0 <= x0 <= 1
 0 <= x1 <= 1
 0 <= x2 <= 1
 0 <= x3 <= 1
 0 <= x4 <= 1
 0 <= x5 <= 1
 0 <= x6 <= 1
 0 <= x7 <= 1

Binaries
 x0 x1 x2 x3 x4 x5 x6 x7
End
